// --------------------------------------------------------------------------
// Licensed Materials - Property of IBM
//
// 5725-A06 5725-A29 5724-Y48 5724-Y49 5724-Y54 5724-Y55
// Copyright IBM Corporation 1998, 2013. All Rights Reserved.
//
// Note to U.S. Government Users Restricted Rights:
// Use, duplication or disclosure restricted by GSA ADP Schedule
// Contract with IBM Corp.
// --------------------------------------------------------------------------

NbTasks = 122;
NbRsrcs = 4;

Capacity = [ 24, 21, 24, 25 ]; 

Tasks = { 
  < 1, 0, [ 0, 0, 0, 0 ], { 2, 3, 4 } >,
  < 2, 8, [ 0, 3, 0, 0 ], { 6, 13, 14 } >,
  < 3, 4, [ 2, 5, 0, 0 ], { 5, 24, 96 } >,
  < 4, 2, [ 7, 6, 0, 7 ], { 7, 8, 48 } >,
  < 5, 2, [ 4, 0, 9, 6 ], { 10, 40, 45 } >,
  < 6, 7, [ 8, 9, 7, 8 ], { 11, 15, 30 } >,
  < 7, 6, [ 0, 0, 3, 10 ], { 9, 34, 64 } >,
  < 8, 5, [ 3, 3, 6, 0 ], { 29, 30, 32 } >,
  < 9, 4, [ 10, 10, 5, 10 ], { 19, 52, 54 } >,
  < 10, 5, [ 5, 10, 9, 4 ], { 12, 16, 44 } >,
  < 11, 3, [ 0, 4, 7, 9 ], { 20, 21, 22 } >,
  < 12, 4, [ 8, 1, 0, 0 ], { 119 } >,
  < 13, 8, [ 0, 0, 8, 10 ], { 92 } >,
  < 14, 10, [ 0, 6, 7, 0 ], { 17, 25, 36 } >,
  < 15, 5, [ 3, 3, 0, 6 ], { 58, 69, 92 } >,
  < 16, 7, [ 0, 6, 6, 8 ], { 18, 27, 55 } >,
  < 17, 3, [ 0, 1, 5, 4 ], { 22, 23, 71 } >,
  < 18, 4, [ 8, 0, 0, 1 ], { 82 } >,
  < 19, 6, [ 0, 6, 6, 9 ], { 38, 44 } >,
  < 20, 5, [ 4, 1, 5, 0 ], { 35, 77 } >,
  < 21, 9, [ 0, 6, 1, 0 ], { 33, 59, 68 } >,
  < 22, 5, [ 3, 0, 10, 7 ], { 39, 51 } >,
  < 23, 7, [ 9, 4, 0, 9 ], { 26, 72, 74 } >,
  < 24, 5, [ 8, 0, 3, 6 ], { 73, 102 } >,
  < 25, 5, [ 5, 7, 0, 1 ], { 87, 90 } >,
  < 26, 7, [ 8, 0, 10, 0 ], { 28, 53, 79 } >,
  < 27, 1, [ 5, 1, 1, 6 ], { 41 } >,
  < 28, 3, [ 0, 3, 8, 6 ], { 29, 54, 98 } >,
  < 29, 3, [ 2, 0, 5, 0 ], { 59, 92 } >,
  < 30, 10, [ 5, 9, 5, 8 ], { 31, 37, 101 } >,
  < 31, 9, [ 8, 6, 2, 0 ], { 42, 57, 60 } >,
  < 32, 8, [ 10, 4, 10, 6 ], { 43, 50, 81 } >,
  < 33, 6, [ 6, 10, 9, 8 ], { 83, 94, 115 } >,
  < 34, 8, [ 0, 0, 9, 9 ], { 58, 100, 121 } >,
  < 35, 5, [ 0, 3, 3, 3 ], { 46, 56, 67 } >,
  < 36, 1, [ 10, 1, 2, 5 ], { 39 } >,
  < 37, 7, [ 6, 7, 0, 4 ], { 49 } >,
  < 38, 10, [ 3, 0, 8, 1 ], { 84 } >,
  < 39, 9, [ 9, 0, 0, 0 ], { 75, 78, 98 } >,
  < 40, 7, [ 0, 1, 2, 4 ], { 47 } >,
  < 41, 1, [ 0, 5, 0, 0 ], { 54 } >,
  < 42, 9, [ 1, 0, 3, 0 ], { 52, 74 } >,
  < 43, 1, [ 6, 5, 4, 9 ], { 80 } >,
  < 44, 6, [ 0, 8, 8, 7 ], { 56 } >,
  < 45, 9, [ 0, 3, 3, 0 ], { 69, 88 } >,
  < 46, 6, [ 9, 0, 5, 2 ], { 94, 105 } >,
  < 47, 8, [ 4, 7, 8, 6 ], { 69, 82 } >,
  < 48, 10, [ 9, 1, 3, 9 ], { 120 } >,
  < 49, 3, [ 2, 8, 1, 9 ], { 63 } >,
  < 50, 4, [ 0, 6, 6, 0 ], { 63, 68, 70 } >,
  < 51, 5, [ 0, 0, 3, 7 ], { 65, 73, 87 } >,
  < 52, 10, [ 6, 6, 10, 8 ], { 95, 113, 117 } >,
  < 53, 9, [ 2, 0, 4, 1 ], { 68 } >,
  < 54, 2, [ 3, 7, 0, 1 ], { 86, 118 } >,
  < 55, 5, [ 2, 6, 7, 5 ], { 61 } >,
  < 56, 8, [ 6, 7, 7, 0 ], { 80 } >,
  < 57, 1, [ 7, 10, 0, 2 ], { 66, 76 } >,
  < 58, 5, [ 4, 6, 8, 0 ], { 65, 91, 102 } >,
  < 59, 9, [ 6, 7, 7, 3 ], { 110 } >,
  < 60, 2, [ 0, 0, 9, 3 ], { 62, 76, 108 } >,
  < 61, 2, [ 2, 3, 8, 0 ], { 78 } >,
  < 62, 10, [ 3, 6, 0, 8 ], { 77, 81 } >,
  < 63, 4, [ 1, 0, 6, 10 ], { 76, 85, 91 } >,
  < 64, 10, [ 9, 6, 0, 7 ], { 93 } >,
  < 65, 6, [ 6, 6, 5, 9 ], { 117 } >,
  < 66, 5, [ 2, 10, 0, 4 ], { 116 } >,
  < 67, 5, [ 6, 6, 0, 7 ], { 70, 74, 80 } >,
  < 68, 5, [ 0, 5, 10, 8 ], { 93 } >,
  < 69, 10, [ 2, 0, 10, 0 ], { 75, 87 } >,
  < 70, 4, [ 2, 1, 7, 0 ], { 94 } >,
  < 71, 8, [ 2, 10, 10, 10 ], { 91 } >,
  < 72, 7, [ 0, 2, 6, 1 ], { 83, 109 } >,
  < 73, 2, [ 0, 8, 0, 0 ], { 75, 77 } >,
  < 74, 4, [ 9, 0, 3, 10 ], { 90, 93 } >,
  < 75, 2, [ 7, 8, 7, 3 ], { 79, 97 } >,
  < 76, 2, [ 7, 5, 3, 3 ], { 106 } >,
  < 77, 5, [ 4, 10, 3, 0 ], { 114 } >,
  < 78, 5, [ 4, 2, 0, 9 ], { 82 } >,
  < 79, 8, [ 0, 0, 3, 0 ], { 108 } >,
  < 80, 2, [ 3, 8, 0, 0 ], { 103 } >,
  < 81, 8, [ 2, 2, 3, 5 ], { 107, 112 } >,
  < 82, 3, [ 6, 10, 0, 6 ], { 90, 97, 99 } >,
  < 83, 4, [ 3, 8, 0, 8 ], { 114 } >,
  < 84, 4, [ 6, 5, 5, 7 ], { 102, 121 } >,
  < 85, 2, [ 0, 1, 7, 6 ], { 107, 112 } >,
  < 86, 6, [ 3, 4, 3, 1 ], { 103 } >,
  < 87, 1, [ 9, 6, 9, 2 ], { 99 } >,
  < 88, 6, [ 8, 3, 8, 3 ], { 89, 100 } >,
  < 89, 5, [ 2, 10, 10, 4 ], { 95, 101 } >,
  < 90, 9, [ 9, 8, 3, 10 ], { 103 } >,
  < 91, 3, [ 7, 8, 1, 0 ], { 109, 114 } >,
  < 92, 8, [ 0, 4, 8, 7 ], { 95 } >,
  < 93, 3, [ 7, 4, 0, 0 ], { 104 } >,
  < 94, 1, [ 6, 7, 2, 5 ], { 97 } >,
  < 95, 5, [ 0, 0, 3, 1 ], { 111, 121 } >,
  < 96, 1, [ 0, 1, 10, 3 ], { 98, 105 } >,
  < 97, 8, [ 8, 6, 6, 0 ], { 101, 104 } >,
  < 98, 4, [ 5, 2, 0, 5 ], { 108 } >,
  < 99, 2, [ 9, 10, 9, 0 ], { 100, 118 } >,
  < 100, 4, [ 3, 9, 0, 1 ], { 111, 115 } >,
  < 101, 1, [ 8, 2, 5, 7 ], { 116 } >,
  < 102, 5, [ 9, 3, 0, 5 ], { 105, 109 } >,
  < 103, 4, [ 3, 0, 0, 7 ], { 106, 111 } >,
  < 104, 1, [ 1, 6, 8, 0 ], { 110 } >,
  < 105, 4, [ 5, 0, 0, 2 ], { 106 } >,
  < 106, 2, [ 0, 1, 2, 5 ], { 107 } >,
  < 107, 4, [ 0, 8, 8, 2 ], { 115 } >,
  < 108, 2, [ 1, 4, 9, 3 ], { 112 } >,
  < 109, 4, [ 0, 1, 7, 1 ], { 110 } >,
  < 110, 2, [ 6, 3, 0, 10 ], { 113 } >,
  < 111, 4, [ 5, 0, 3, 3 ], { 116 } >,
  < 112, 9, [ 9, 6, 4, 0 ], { 113 } >,
  < 113, 8, [ 1, 9, 1, 5 ], { 118 } >,
  < 114, 9, [ 0, 8, 7, 0 ], { 120 } >,
  < 115, 1, [ 0, 0, 0, 8 ], { 117 } >,
  < 116, 7, [ 6, 4, 3, 3 ], { 120 } >,
  < 117, 8, [ 8, 3, 1, 6 ], { 119 } >,
  < 118, 2, [ 4, 5, 3, 0 ], { 119 } >,
  < 119, 6, [ 0, 10, 10, 10 ], { 122 } >,
  < 120, 2, [ 5, 4, 1, 6 ], { 122 } >,
  < 121, 3, [ 9, 4, 1, 2 ], { 122 } >,
  < 122, 0, [ 0, 0, 0, 0 ], {  } >
 }; 

